8	8
2	25	0	50	1	21	6	54	3	86	7	18	5	76	4	41
0	82	3	74	6	64	5	32	2	10	4	94	1	18	7	5
2	41	5	95	6	45	0	37	4	72	1	3	7	86	3	30
6	49	4	3	2	17	1	25	0	73	3	82	7	96	5	73
3	27	4	88	6	34	1	76	5	42	7	92	2	87	0	30
1	15	4	72	6	67	2	92	3	8	7	48	5	85	0	83
7	49	6	55	3	45	2	79	4	79	5	48	0	18	1	52
7	65	0	44	5	70	2	5	3	85	4	27	6	96	1	48
